60
110.0 195.0 
145.0 185.0 
150.0 159.0 
145.0 161.0 
110.0 195.0 
145.0 185.0 
150.0 159.0 
145.0 161.0 
110.0 195.0 
145.0 185.0 
150.0 159.0 
145.0 161.0 
110.0 195.0 
145.0 185.0 
150.0 159.0 
145.0 161.0 
110.0 195.0 
145.0 185.0 
150.0 159.0 
145.0 161.0 
110.0 195.0 
145.0 185.0 
150.0 159.0 
145.0 161.0 
110.0 195.0 
145.0 185.0 
150.0 159.0 
145.0 161.0 
110.0 195.0 
145.0 185.0 
150.0 159.0 
145.0 161.0 
110.0 195.0 
145.0 185.0 
150.0 159.0 
145.0 161.0 
110.0 195.0 
145.0 185.0 
150.0 159.0 
145.0 161.0 
110.0 195.0 
145.0 185.0 
110.0 195.0 
145.0 185.0 
110.0 195.0 
145.0 185.0 
110.0 195.0 
145.0 185.0 
110.0 195.0 
145.0 185.0 
110.0 195.0 
145.0 185.0 
110.0 195.0 
145.0 185.0 
110.0 195.0 
145.0 185.0 
110.0 195.0 
145.0 185.0 
110.0 195.0 
145.0 185.0 

0 27 17 4 2 6 5 12 8 7 9 10 11 20 19 18 31 
0 27 18 19 26 30 25 24 22 21 20 11 10 9 8 7 6 31 
0 27 18 19 26 30 25 24 23 22 21 20 11 10 9 8 31 
0 18 19 26 30 25 24 23 22 21 20 11 10 9 8 7 31 
0 27 17 4 2 6 5 12 8 7 9 10 11 20 19 18 31 
0 27 18 19 26 30 25 24 22 21 20 11 10 9 8 7 6 31 
0 27 18 19 26 30 25 24 23 22 21 20 11 10 9 8 31 
0 18 19 26 30 25 24 23 22 21 20 11 10 9 8 7 31 
0 27 17 4 2 6 5 12 8 7 9 10 11 20 19 18 31 
0 27 18 19 26 30 25 24 22 21 20 11 10 9 8 7 6 31 
0 27 18 19 26 30 25 24 23 22 21 20 11 10 9 8 31 
0 18 19 26 30 25 24 23 22 21 20 11 10 9 8 7 31 
0 27 17 4 2 6 5 12 8 7 9 10 11 20 19 18 31 
0 27 18 19 26 30 25 24 22 21 20 11 10 9 8 7 6 31 
0 27 18 19 26 30 25 24 23 22 21 20 11 10 9 8 31 
0 18 19 26 30 25 24 23 22 21 20 11 10 9 8 7 31 
0 27 17 4 2 6 5 12 8 7 9 10 11 20 19 18 31 
0 27 18 19 26 30 25 24 22 21 20 11 10 9 8 7 6 31 
0 27 18 19 26 30 25 24 23 22 21 20 11 10 9 8 31 
0 18 19 26 30 25 24 23 22 21 20 11 10 9 8 7 31 
0 27 17 4 2 6 5 12 8 7 9 10 11 20 19 18 31 
0 27 18 19 26 30 25 24 22 21 20 11 10 9 8 7 6 31 
0 27 18 19 26 30 25 24 23 22 21 20 11 10 9 8 31 
0 18 19 26 30 25 24 23 22 21 20 11 10 9 8 7 31 
0 27 17 4 2 6 5 12 8 7 9 10 11 20 19 18 31 
0 27 18 19 26 30 25 24 22 21 20 11 10 9 8 7 6 31 
0 27 18 19 26 30 25 24 23 22 21 20 11 10 9 8 31 
0 18 19 26 30 25 24 23 22 21 20 11 10 9 8 7 31 
0 27 17 4 2 6 5 12 8 7 9 10 11 20 19 18 31 
0 27 18 19 26 30 25 24 22 21 20 11 10 9 8 7 6 31 
0 27 18 19 26 30 25 24 23 22 21 20 11 10 9 8 31 
0 18 19 26 30 25 24 23 22 21 20 11 10 9 8 7 31 
0 27 17 4 2 6 5 12 8 7 9 10 11 20 19 18 31 
0 27 18 19 26 30 25 24 22 21 20 11 10 9 8 7 6 31 
0 27 18 19 26 30 25 24 23 22 21 20 11 10 9 8 31 
0 18 19 26 30 25 24 23 22 21 20 11 10 9 8 7 31 
0 27 17 4 2 6 5 12 8 7 9 10 11 20 19 18 31 
0 27 18 19 26 30 25 24 22 21 20 11 10 9 8 7 6 31 
0 27 18 19 26 30 25 24 23 22 21 20 11 10 9 8 31 
0 18 19 26 30 25 24 23 22 21 20 11 10 9 8 7 31 
0 27 17 4 2 6 5 12 8 7 9 10 11 20 19 18 31 
0 27 18 19 26 30 25 24 22 21 20 11 10 9 8 7 6 31 
0 27 17 4 2 6 5 12 8 7 9 10 11 20 19 18 31 
0 27 18 19 26 30 25 24 22 21 20 11 10 9 8 7 6 31 
0 27 17 4 2 6 5 12 8 7 9 10 11 20 19 18 31 
0 27 18 19 26 30 25 24 22 21 20 11 10 9 8 7 6 31 
0 27 17 4 2 6 5 12 8 7 9 10 11 20 19 18 31 
0 27 18 19 26 30 25 24 22 21 20 11 10 9 8 7 6 31 
0 27 17 4 2 6 5 12 8 7 9 10 11 20 19 18 31 
0 27 18 19 26 30 25 24 22 21 20 11 10 9 8 7 6 31 
0 27 17 4 2 6 5 12 8 7 9 10 11 20 19 18 31 
0 27 18 19 26 30 25 24 22 21 20 11 10 9 8 7 6 31 
0 27 17 4 2 6 5 12 8 7 9 10 11 20 19 18 31 
0 27 18 19 26 30 25 24 22 21 20 11 10 9 8 7 6 31 
0 27 17 4 2 6 5 12 8 7 9 10 11 20 19 18 31 
0 27 18 19 26 30 25 24 22 21 20 11 10 9 8 7 6 31 
0 27 17 4 2 6 5 12 8 7 9 10 11 20 19 18 31 
0 27 18 19 26 30 25 24 22 21 20 11 10 9 8 7 6 31 
0 27 17 4 2 6 5 12 8 7 9 10 11 20 19 18 31 
0 27 18 19 26 30 25 24 22 21 20 11 10 9 8 7 6 31 
